
Gurobi 13.0.1 (mac64[arm], Python) logging started Fri Apr 17 13:12:09 2026

Set parameter LogToConsole to value 0
Set parameter Username
Set parameter LicenseID to value 2799845
Set parameter LogFile to value "/Users/monitsharma/SMU-Quantum-Repos/quantum-optimization-benchmarks/classical_solutions/results/qap/logs/tai10a_solver.log"
Academic license - for non-commercial use only - expires 2027-03-30
Set parameter TimeLimit to value 100
Set parameter Threads to value 0
Set parameter MIPGap to value 0
Set parameter MIPFocus to value 0
Set parameter DisplayInterval to value 5
Set parameter NonConvex to value 2
Gurobi Optimizer version 13.0.1 build v13.0.1rc0 (mac64[arm] - Darwin 25.4.0 25E253)

CPU model: Apple M3 Pro
Thread count: 12 physical cores, 12 logical processors, using up to 12 threads

Non-default parameters:
TimeLimit  100
MIPGap  0
LogToConsole  0
NonConvex  2

Optimize a model with 20 rows, 100 columns and 200 nonzeros (Min)
Model fingerprint: 0x0e16a08e
Model has 0 linear objective coefficients
Model has 3870 quadratic objective terms
Variable types: 0 continuous, 100 integer (100 binary)
Coefficient statistics:
  Matrix range     [1e+00, 1e+00]
  Objective range  [0e+00, 0e+00]
  QObjective range [4e+00, 4e+04]
  Bounds range     [1e+00, 1e+00]
  RHS range        [1e+00, 1e+00]

Found heuristic solution: objective 185780.00000
Presolve time: 0.02s
Presolved: 20 rows, 100 columns, 200 nonzeros
Presolved model has 3970 quadratic objective terms
Variable types: 0 continuous, 100 integer (100 binary)

Root relaxation: objective -5.643931e+05, 120 iterations, 0.00 seconds (0.00 work units)

    Nodes    |    Current Node    |     Objective Bounds      |     Work
 Expl Unexpl |  Obj  Depth IntInf | Incumbent    BestBd   Gap | It/Node Time

H    0     0                    184096.00000    0.00000   100%     -    0s
     0     0    0.00000    0  100 184096.000    0.00000   100%     -    0s
H    0     0                    173526.00000    0.00000   100%     -    0s
H    0     0                    171440.00000    0.00000   100%     -    0s
H    0     0                    169718.00000    0.00000   100%     -    0s
H    0     0                    167716.00000    0.00000   100%     -    0s
H    0     0                    163266.00000    0.00000   100%     -    0s
     0     0    0.00000    0  100 163266.000    0.00000   100%     -    0s
H    0     0                    160308.00000    0.00000   100%     -    0s
H    0     0                    143234.00000    0.00000   100%     -    0s
     0     2    0.00000    0  100 143234.000    0.00000   100%     -    0s
H  102   148                    140982.00000    0.00000   100%   3.8    0s
H  107   148                    137362.00000    0.00000   100%   3.7    0s
H 1630   934                    135602.00000    0.00000   100%   9.3    0s
H 3680  2038                    135028.00000 3887.86026  97.1%   9.8    0s
 221442 22235     cutoff   78      135028.000 108604.773  19.6%   7.4    5s

Cutting planes:
  Gomory: 3
  Implied bound: 15
  MIR: 5
  Flow cover: 81
  Inf proof: 3
  RLT: 1

Explored 274306 nodes (1891791 simplex iterations) in 5.82 seconds (11.70 work units)
Thread count was 12 (of 12 available processors)

Solution count 10: 135028 135602 137362 ... 171440

Optimal solution found (tolerance 0.00e+00)
Best objective 1.350280000000e+05, best bound 1.350280000000e+05, gap 0.0000%
